RAW/XQ/fspd-mid/X-n101-k25.vrp_seed-4.out
21937	42.307	159.405
