RAW/XQ/fspd-mid/X-n101-k25.vrp_seed-4.sol
Route #1: 46 24 31 95 73 33 32
Route #2: 53 93
Route #3: 86 9 92 54 68
Route #4: 11 85 30 75
Route #5: 19 91 97
Route #6: 79 50
Route #7: 17 64 3 58
Route #8: 35 20 41 22 15
Route #9: 71 62 99 98 89 100
Route #10: 81 51 83 52
Route #11: 23 61 21
Route #12: 27 38 47 94 56 8
Route #13: 42 78 37 87 48 26 96 80
Route #14: 1 70 5
Route #15: 74 13 4 18 12
Route #16: 55 69 16 76 90 84 66
Route #17: 34 67 77 14 44
Route #18: 63 28 82 60 59
Route #19: 65 7 49 2 45 43 29 36 6 72 57 88 40
Route #20: 39 10 25
Cost 21937.000000